NAME : problem.tsptw
TYPE : TSPTW
DIMENSION : 8
EDGE_WEIGHT_TYPE : EXPLICIT
EDGE_WEIGHT_FORMAT : FULL_MATRIX
EDGE_WEIGHT_SECTION
0 3162 3174 2356 3049 3163 3009 2425
2940 0 752 980 322 671 320 1009
2912 493 0 1151 302 510 262 1181
2149 860 1284 0 1034 911 1022 170
2948 405 631 1064 0 520 46 1094
2928 758 616 1050 554 0 514 1079
2901 398 584 1050 39 473 0 1080
2175 863 1286 225 1036 913 1025 0
TIME_WINDOW_SECTION
1 0 600000
2 12600 23400
3 1800 7200
4 12600 23400
5 9000 14400
6 9000 19800
7 10800 21600
8 3600 9000
DEPOT_SECTION
1
-1
EOF